c ! encoding i-pc 250
p cnf 495 839
-251 0
251 -252 0
251 -253 0
251 -254 0
251 -255 0
251 -256 0
257 -258 0
258 -259 0
103 -259 0
-207 -261 0
260 -261 0
261 -262 0
-103 -262 0
259 262 -263 0
195 -264 0
25 -264 0
265 0
266 -267 0
267 -268 0
-25 -268 0
264 268 -269 0
196 -270 0
210 -270 0
263 -271 0
269 -271 0
270 -271 0
271 -273 0
272 -273 0
273 -274 0
245 -274 0
257 -275 0
275 -276 0
103 -276 0
-207 -277 0
-103 -277 0
276 277 -278 0
210 -279 0
196 -279 0
280 -281 0
281 -282 0
-196 -282 0
279 282 -283 0
195 -284 0
272 -284 0
284 -285 0
25 -285 0
163 -286 0
266 -286 0
286 -287 0
-25 -287 0
285 287 -288 0
278 -289 0
283 -289 0
288 -289 0
57 -289 0
289 -290 0
-245 -290 0
274 290 -291 0
291 -292 0
251 -293 0
292 293 -294 0
30 -295 0
220 -295 0
296 -297 0
297 -298 0
-220 -298 0
295 298 -299 0
23 -300 0
-75 -300 0
117 -300 0
120 -300 0
134 -300 0
181 -300 0
-204 -300 0
301 -306 0
302 -306 0
303 -306 0
304 -306 0
305 -306 0
294 -307 0
299 -307 0
300 -307 0
306 -307 0
307 -308 0
256 308 -309 0
250 -310 0
309 -311 0
310 -311 0
311 -312 0
255 312 -313 0
313 -315 0
314 -315 0
315 -316 0
251 -317 0
316 317 -318 0
318 -319 0
319 -320 0
254 320 -321 0
321 -323 0
323 -324 0
251 -325 0
324 325 -326 0
232 -327 0
326 -328 0
328 -329 0
251 -330 0
329 330 -331 0
331 -332 0
332 -333 0
191 -333 0
251 -334 0
251 -335 0
251 -336 0
196 -337 0
210 -337 0
263 -338 0
269 -338 0
337 -338 0
338 -339 0
272 -339 0
339 -340 0
245 -340 0
212 -341 0
342 -343 0
343 -344 0
-212 -344 0
341 344 -345 0
278 -346 0
283 -346 0
288 -346 0
345 -346 0
57 -346 0
346 -347 0
-245 -347 0
340 347 -348 0
23 -349 0
117 -349 0
120 -349 0
181 -349 0
-204 -349 0
304 -351 0
301 -351 0
302 -351 0
303 -351 0
350 -351 0
305 -351 0
348 -352 0
299 -352 0
349 -352 0
351 -352 0
352 -353 0
336 353 -354 0
-75 -355 0
134 -355 0
250 -355 0
354 -356 0
355 -356 0
356 -357 0
335 357 -358 0
358 -360 0
359 -360 0
360 -361 0
251 -362 0
361 362 -363 0
363 -365 0
364 -365 0
365 -366 0
334 366 -367 0
367 -368 0
368 -369 0
251 -370 0
369 370 -371 0
371 -372 0
372 -373 0
251 -374 0
373 374 -375 0
375 -376 0
-191 -376 0
377 -379 0
251 -387 0
251 -390 0
18 -392 0
251 -393 0
251 -394 0
251 -395 0
134 -397 0
396 -397 0
397 -398 0
250 -398 0
399 -400 0
400 -401 0
204 -401 0
134 -402 0
-204 -402 0
401 402 -403 0
403 -404 0
-250 -404 0
398 404 -405 0
-75 -406 0
117 -406 0
-181 -406 0
406 -407 0
120 -407 0
-117 -409 0
408 -409 0
409 -410 0
75 -410 0
-117 -411 0
181 -411 0
412 -413 0
413 -414 0
-181 -414 0
411 414 -415 0
415 -416 0
-75 -416 0
410 416 -417 0
417 -418 0
-120 -418 0
407 418 -419 0
-23 -420 0
-30 -420 0
-220 -420 0
405 -421 0
419 -421 0
420 -421 0
421 -422 0
149 -422 0
299 -423 0
134 -423 0
396 -423 0
423 -424 0
250 -424 0
30 -425 0
134 -425 0
425 -426 0
220 -426 0
296 -427 0
399 -427 0
427 -428 0
-220 -428 0
426 428 -429 0
429 -430 0
204 -430 0
299 -431 0
134 -431 0
431 -432 0
-204 -432 0
430 432 -433 0
433 -434 0
-250 -434 0
424 434 -435 0
406 -437 0
436 -437 0
437 -438 0
120 -438 0
-23 -439 0
-117 -439 0
439 -440 0
408 -440 0
440 -441 0
75 -441 0
439 -442 0
181 -442 0
436 -443 0
443 -444 0
117 -444 0
-23 -445 0
-117 -445 0
444 445 -446 0
446 -447 0
-181 -447 0
442 447 -448 0
448 -449 0
-75 -449 0
441 449 -450 0
450 -451 0
-120 -451 0
438 451 -452 0
435 -453 0
452 -453 0
453 -454 0
-149 -454 0
422 454 -455 0
-3 -456 0
10 -456 0
14 -456 0
-20 -456 0
22 -456 0
-25 -456 0
-28 -456 0
31 -456 0
-32 -456 0
-42 -456 0
44 -456 0
50 -456 0
54 -456 0
69 -456 0
-71 -456 0
74 -456 0
78 -456 0
-80 -456 0
82 -456 0
-87 -456 0
100 -456 0
103 -456 0
104 -456 0
130 -456 0
-132 -456 0
145 -456 0
-150 -456 0
-152 -456 0
-154 -456 0
-155 -456 0
-161 -456 0
163 -456 0
164 -456 0
-172 -456 0
-174 -456 0
194 -456 0
-195 -456 0
-196 -456 0
207 -456 0
211 -456 0
-216 -456 0
-221 -456 0
-232 -456 0
-245 -456 0
457 -463 0
458 -463 0
459 -463 0
460 -463 0
304 -463 0
461 -463 0
462 -463 0
280 -463 0
455 -464 0
463 -464 0
467 -468 0
251 -472 0
251 -479 0
251 -482 0
251 -485 0
-18 -488 0
489 -490 0
251 -491 0
251 -494 0
-1 0
-2 0
4 0
-5 0
6 0
-9 0
11 0
12 0
-13 0
15 0
17 0
19 0
-24 0
-27 0
-29 0
-33 0
-34 0
-35 0
36 0
37 0
-38 0
-39 0
40 0
-41 0
-43 0
-45 0
46 0
47 0
-48 0
49 0
-51 0
52 0
53 0
55 0
56 0
-58 0
-59 0
-63 0
-64 0
65 0
-67 0
-68 0
-70 0
72 0
76 0
-77 0
-81 0
-83 0
84 0
85 0
-86 0
88 0
-89 0
-90 0
-91 0
-92 0
93 0
94 0
-96 0
97 0
98 0
-99 0
-101 0
102 0
105 0
-106 0
-107 0
108 0
-110 0
-111 0
-112 0
-114 0
-115 0
-116 0
-119 0
121 0
122 0
123 0
-124 0
-125 0
-127 0
128 0
-131 0
-133 0
135 0
136 0
137 0
-138 0
139 0
-140 0
142 0
-143 0
-144 0
-146 0
-147 0
148 0
151 0
153 0
-156 0
157 0
158 0
-159 0
-160 0
-162 0
165 0
-166 0
-167 0
-168 0
-169 0
170 0
-171 0
-173 0
-177 0
178 0
180 0
-182 0
-183 0
-185 0
186 0
187 0
-188 0
189 0
-190 0
-192 0
197 0
-198 0
-200 0
-201 0
-202 0
203 0
205 0
208 0
209 0
-213 0
214 0
-215 0
217 0
218 0
-219 0
222 0
223 0
224 0
-225 0
-226 0
-227 0
-228 0
229 0
-230 0
-231 0
-233 0
-234 0
-235 0
-237 0
-238 0
-240 0
-241 0
242 0
243 0
244 0
246 0
247 0
248 0
249 0
95 494 0
-493 495 0
73 491 0
-490 492 0
-486 487 0
-483 484 0
-480 481 0
206 479 0
-478 480 0
-477 478 0
-475 476 0
175 472 0
-470 471 0
-469 470 0
-468 469 0
-467 468 0
-466 468 0
-464 465 0
-179 304 0
-476 477 0
-331 332 0
172 305 456 0
-360 361 0
-172 305 0
79 327 0
87 303 456 0
-280 281 463 0
130 302 0
-301 306 351 0
44 301 0
-44 301 456 0
21 469 0
-461 463 0
-448 449 0
-100 456 0
-87 303 0
179 304 0
-401 403 0
-391 392 0
-292 294 0
-270 271 0
-181 300 349 408 411 442 0
-130 302 456 0
-451 452 0
-7 252 484 0
-295 299 0
-388 389 0
-266 267 286 0
-259 263 0
-134 300 355 397 399 402 423 425 431 0
-273 274 0
-287 288 0
-207 257 456 0
-379 380 0
-406 407 437 0
-444 446 0
-340 348 0
-439 440 442 0
-194 456 0
-363 365 0
-50 456 0
-126 395 0
-269 271 338 0
-282 283 0
-196 270 279 337 0
103 262 277 0
-275 276 0
-274 291 0
163 272 0
-356 357 0
-307 308 0
-245 274 340 0
-263 271 338 0
-303 306 351 0
-286 287 0
-141 254 334 0
-283 289 346 0
-465 466 0
-323 324 0
-73 490 0
-257 258 275 0
-25 264 285 0
-349 352 0
-75 410 441 0
-359 360 0
-16 327 0
-66 255 335 0
-351 352 0
-288 289 346 0
207 257 261 277 0
-291 292 0
-326 328 0
-204 396 401 430 0
-400 401 0
-279 283 0
-285 288 0
-262 263 0
-271 273 0
-422 455 0
-220 295 426 0
-290 291 0
-195 264 266 284 0
-184 253 393 0
-284 285 0
-264 269 0
196 282 456 0
-104 456 0
-457 463 0
-294 307 0
-281 282 0
-103 259 276 456 0
-440 441 0
195 266 456 0
-306 307 0
-299 307 352 423 431 0
-258 259 0
-277 278 0
-163 272 286 456 0
7 384 485 0
-30 295 296 425 0
-435 453 0
-441 450 0
-14 456 0
-210 270 279 280 337 0
-268 269 0
57 260 0
204 300 349 396 402 432 0
-454 455 0
-260 261 0
-113 458 0
-278 289 346 0
-302 306 351 0
-261 262 0
-54 456 0
42 456 0
-120 300 349 407 438 0
-371 372 0
-289 290 0
-414 415 0
152 456 0
-382 383 0
210 280 0
-344 345 0
236 293 0
-298 299 0
-272 273 284 339 0
-149 422 0
-337 338 0
-117 300 349 406 412 444 0
220 298 420 428 0
-23 300 349 436 0
-459 463 0
-396 397 423 0
-297 298 0
-430 433 0
-473 475 0
-267 268 0
-308 309 0
-377 379 0
-484 486 0
-419 421 0
-343 344 0
-74 456 0
-404 405 0
-300 307 0
245 290 347 456 0
-399 400 427 0
30 296 420 0
-357 358 0
-310 311 0
-311 312 0
-313 315 0
-309 311 0
-381 383 0
-386 388 0
-474 475 0
221 456 0
-314 315 0
-315 316 0
71 456 0
-316 318 0
193 317 362 0
-318 319 0
199 390 487 0
-319 320 0
-164 456 0
-320 321 0
-321 323 0
-276 278 0
-350 351 0
-487 488 0
-481 483 0
-312 313 0
-79 456 0
-322 323 368 0
-380 381 0
-389 391 0
150 456 0
-324 326 0
109 325 370 0
-413 414 0
-265 267 275 281 297 343 400 413 427 443 0
-328 329 0
-329 331 0
216 330 374 456 0
-8 256 336 0
-408 409 440 0
-332 333 0
-471 473 0
80 456 0
-432 433 0
-333 377 0
181 406 408 414 447 0
-199 389 0
-338 339 0
-437 438 0
-62 342 0
-342 343 0
-345 346 0
-346 347 0
-339 340 0
-443 444 0
-352 353 0
-353 354 0
-354 356 0
-355 356 0
-368 369 0
-358 360 0
25 268 287 456 0
-361 363 0
239 460 0
-364 365 0
75 300 355 406 416 449 0
-365 366 0
-366 367 0
-367 368 0
-208 322 456 0
-369 371 0
-372 373 0
-61 459 0
-373 375 0
-375 376 0
-305 306 351 0
191 376 0
212 344 0
-376 377 0
16 456 0
154 456 0
32 456 0
-378 379 0
-21 382 394 0
-40 382 456 0
83 382 474 0
-176 457 0
-383 384 0
-384 385 0
-385 386 0
118 387 482 0
-211 456 0
-397 398 0
-398 405 0
134 399 0
-175 378 471 0
-402 403 0
-403 404 0
250 404 434 0
-405 421 0
-407 419 0
117 409 411 412 439 445 0
-409 410 0
-410 417 0
-250 310 355 398 424 0
-411 415 0
132 456 0
-412 413 0
-415 416 0
-416 417 0
-417 418 0
120 418 451 0
-418 419 0
23 420 436 439 445 0
-420 421 0
-421 422 0
-423 424 0
-22 456 0
-424 435 0
-425 426 0
-426 429 0
-427 428 0
-460 463 0
-428 429 0
-429 430 0
129 350 0
-431 432 0
-433 434 0
-434 435 0
-341 345 0
-436 437 443 0
20 456 0
-456 464 0
-438 452 0
-442 448 0
-347 348 0
-445 446 0
-348 352 0
-446 447 0
-447 448 0
-449 450 0
-450 451 0
-452 453 0
-453 454 0
-455 464 0
3 456 0
28 456 0
-10 456 0
-31 456 0
-69 456 0
161 456 0
-78 456 0
-82 456 0
174 456 0
-145 456 0
155 456 0
-296 297 427 0
-458 463 0
60 461 0
-463 464 0
-26 462 0
-95 493 0
-462 463 0
